#==============================================================================
data_global
#==============================================================================

_publ_contact_author_name         '' 
_publ_contact_author_address 
; 

; 

_publ_contact_author_email        '' 

_publ_requested_journal           '' 

_publ_section_title 
; 
; 

loop_ 
 _publ_author_name 
 _publ_author_address  
;
'CHEMIST'
;    
;
Research School of Chemistry,
Australian National University,
Building 137, Sullivan's Creek Road,
Canberra, ACT, 2601,
Australia.
;
;
'Nicholas G. White'
;    
;
Research School of Chemistry,
Australian National University,
Building 137, Sullivan's Creek Road,
Canberra, ACT, 2601,
Australia.
;
_publ_section_abstract 
; 
; 

#==============================================================================
data_1
#==============================================================================
# start Validation Reply Form
_vrf_PLAT029_1
;
PROBLEM: _diffrn_measured_fraction_theta_full value Low .      0.967 Why?  
RESPONSE: Low data completion ratio is due to the limitations of the instrument
available at the Australian Synchrotron operating under rotation data 
collection with a fixed detector and affects some high angle data.
;
# end Validation Reply Form

_publ_section_exptl_prep 
; 
Crystals were grown by carefully layering a solution of the tetraamidinium as 
its chloride salt in water with a solution of the tetracarboxylate as its
tetrabutylammonium salt in ethanol.
; 

_exptl_special_details 
; 
 The crystal was 
placed in the cold stream of an Oxford 
Cryosystems open-flow nitrogen cryostat (Cosier & 
Glazer, 1986) with a nominal stability of 0.1K. 
 
Cosier, J. & Glazer, A.M., 1986. J. Appl. Cryst. 105-107. 
; 

_refine_special_details 
; 
C-H hydrogen atoms were  visible in the Fourier difference map and 
were initially refined with restraints on bond lengths and angles, after which 
the positions were used as the basis for a riding model. N-H and O-H hydrogen
atoms were visible in the difference map and were refined with restraints on 
bond lengths and angles.

Apart from the restraints on hydrogen atoms, it was not necessary to use any
crystallographic restraints in the refinement.
; 

_cell_length_a                    20.357(2)
_cell_length_b                    20.357(2)
_cell_length_c                    15.647(2)
_cell_angle_alpha                 90
_cell_angle_beta                  90
_cell_angle_gamma                 90
_cell_volume                      6484.49(4)
 
_symmetry_cell_setting            'tetragonal' 
_symmetry_space_group_name_H-M    'I 41/a ' 
_symmetry_space_group_name_Hall   '-I 4ad'

loop_
 _symmetry_equiv_pos_as_xyz
 'x,y,z'
 '-x,-y,-z'
 'x+1/2,y+1/2,z+1/2'
 '-x+1/2,-y+1/2,-z+1/2'
 'y+3/4,-x+3/4,z+3/4'
 '-y+3/4,x+3/4,-z+3/4'
 'y+5/4,-x+5/4,z+5/4'
 '-y+5/4,x+5/4,-z+5/4'
 'x+1/2,y,-z+1/2'
 '-x+1/2,-y,z+1/2'
 'x+1,y+1/2,-z+1'
 '-x+1,-y+1/2,z+1'
 '-y+3/4,x+1/4,z+1/4'
 'y+3/4,-x+1/4,-z+1/4'
 '-y+5/4,x+3/4,z+3/4'
 'y+5/4,-x+3/4,-z+3/4'

loop_
_atom_type_symbol
_atom_type_scat_dispersion_real
_atom_type_scat_dispersion_imag
_atom_type_scat_Cromer_Mann_a1
_atom_type_scat_Cromer_Mann_b1
_atom_type_scat_Cromer_Mann_a2
_atom_type_scat_Cromer_Mann_b2
_atom_type_scat_Cromer_Mann_a3
_atom_type_scat_Cromer_Mann_b3
_atom_type_scat_Cromer_Mann_a4
_atom_type_scat_Cromer_Mann_b4
_atom_type_scat_Cromer_Mann_c
_atom_type_scat_source  
 C       0.0033   0.0016   2.3100  20.8439   1.0200  10.2075   1.5886   0.5687
   0.8650  51.6512   0.2156 'International Tables Vol C 4.2.6.8 and 6.1.1.4'
 H       0.0000   0.0000   0.4930  10.5109   0.3229  26.1257   0.1402   3.1424
   0.0408  57.7998   0.0030 'International Tables Vol C 4.2.6.8 and 6.1.1.4'
 N       0.0061   0.0033  12.2126   0.0057   3.1322   9.8933   2.0125  28.9975
   1.1663   0.5826 -11.5290 'International Tables Vol C 4.2.6.8 and 6.1.1.4'
 O       0.0106   0.0060   3.0485  13.2771   2.2868   5.7011   1.5463   0.3239
   0.8670  32.9089   0.2508 'International Tables Vol C 4.2.6.8 and 6.1.1.4'
 
_cell_formula_units_Z              4

_chemical_formula_sum             'C58 H72 N8 O20'
_chemical_formula_moiety          'C29 H16 O8, C29 H32 N8, 12(H2 O)'
_chemical_compound_source          synthesized
_chemical_formula_weight           1201.25
  
_cell_measurement_reflns_used       41766
_cell_measurement_theta_min         1.64
_cell_measurement_theta_max         26.4
_cell_measurement_temperature       100
 
_exptl_crystal_description        'needle' 
_exptl_crystal_colour             'colourless' 
_exptl_crystal_size_min           0.01 
_exptl_crystal_size_mid           0.01 
_exptl_crystal_size_max           0.50
 
_exptl_absorpt_correction_type    'None'

_diffrn_radiation_type            'Synchrotron'
_diffrn_radiation_source          'MX2 Beamline Australian Synchrotron'
_diffrn_radiation_wavelength      0.71073
_diffrn_radiation_monochromator   'Silicon Double Crystal'
_diffrn_measurement_device_type   'Dectris Eiger 16M'
_diffrn_measurement_method        'Omega Scan'

_computing_data_collection        'AS QEGUI' 
_computing_cell_refinement        'XDS (Kabsch, 1993)'
_computing_data_reduction         'XDS (Kabsch, 1993)'
_computing_structure_solution     'Superflip (Palatinus & Chapuis, 2007)' 
_computing_structure_refinement   'CRYSTALS (Betteridge et al., 2003)' 
_computing_publication_material   'CRYSTALS (Betteridge et al., 2003)'  
  
_diffrn_standards_interval_time   . 
_diffrn_standards_interval_count  . 
_diffrn_standards_number          0 
_diffrn_standards_decay_%         . 
 
_diffrn_ambient_temperature        100
_diffrn_reflns_number             41766 
_diffrn_reflns_av_unetI/netI      0.108 
_reflns_number_total              3216 
_diffrn_reflns_av_R_equivalents   0.089 
 
_diffrn_reflns_theta_min          1.641 
_diffrn_reflns_theta_max          26.383 
_diffrn_measured_fraction_theta_max 0.965 
 
_diffrn_reflns_theta_full         25.327 
_diffrn_measured_fraction_theta_full 0.967 
 
_diffrn_reflns_limit_h_min        -25 
_diffrn_reflns_limit_h_max        25 
_diffrn_reflns_limit_k_min        -25 
_diffrn_reflns_limit_k_max        25 
_diffrn_reflns_limit_l_min        -17 
_diffrn_reflns_limit_l_max        17 
_reflns_limit_h_min               -17 
_reflns_limit_h_max               18 
_reflns_limit_k_min               0 
_reflns_limit_k_max               25 
_reflns_limit_l_min               0 
_reflns_limit_l_max               17 
 
_oxford_diffrn_Wilson_B_factor    2.67 
_oxford_diffrn_Wilson_scale       21.48 
 
_atom_sites_solution_primary      other 
_atom_sites_solution_hydrogens    difmap
 
_refine_diff_density_min          -0.22 
_refine_diff_density_max          0.41 
  
# The values actually used during refinement 
_oxford_refine_reflns_threshold_expression_ref   I>-3.0\s(I)
_refine_ls_number_restraints      24 
_refine_ls_number_parameters      234 
_refine_ls_number_reflns          3216 
_oxford_refine_ls_R_factor_ref    0.0650 
_refine_ls_wR_factor_ref          0.1745 
_refine_ls_goodness_of_fit_ref    0.9920 
_refine_ls_shift/su_max           0.0005554 
_refine_ls_shift/su_mean          0.0000673 
 
# The values computed with all filters except I/sigma 
_oxford_reflns_number_all         3216 
_refine_ls_R_factor_all           0.0650 
_refine_ls_wR_factor_all          0.1745 
 
# The values computed with a 2 sigma cutoff - a la SHELX 
_reflns_threshold_expression      I>2.0\s(I)
_reflns_number_gt                 2525 
_refine_ls_R_factor_gt            0.0549 
_refine_ls_wR_factor_gt           0.1619 
  
_refine_ls_structure_factor_coef  Fsqd 
_refine_ls_matrix_type            full
_refine_ls_hydrogen_treatment     mixed          
_refine_ls_weighting_scheme       calc 
_refine_ls_weighting_details 
;
 Method= Modified Sheldrick 
 w=1/[\s^2^(F^2^) + ( 0.12P)^2^ + 2.43P] 
 ,where P=(max(Fo^2^,0) + 2Fc^2^)/3 
;

_publ_section_references 
; 
Betteridge, P.W., Carruthers, J.R., Cooper, R.I., 
Prout, K. & Watkin, D.J. (2003). J. Appl. Cryst. 36, 1487. 
 
Kabsch, W. (1993). J. Appl. Cryst. 26, 795-800.

Palatinus, L. & Chapuis, G. (2007). J. Appl. Cryst. 40, 786-790.   
; 

# Uequiv = arithmetic mean of Ui i.e. Ueqiv = (U1+U2+U3)/3
# Replace last . with number of unfound hydrogen atoms attached to an atom.
# ..._refinement_flags_... 
# . no refinement constraints           S special position constraint on site
# G rigid group refinement of site      R riding atom
# D distance or angle restraint on site T thermal displacement constraints
# U Uiso or Uij restraint (rigid bond)  P partial occupancy constraint
loop_
_atom_site_label
_atom_site_type_symbol
_atom_site_fract_x
_atom_site_fract_y
_atom_site_fract_z
_atom_site_U_iso_or_equiv
_atom_site_occupancy
_atom_site_adp_type
_atom_site_refinement_flags_posn
_atom_site_refinement_flags_adp
_atom_site_refinement_flags_occupancy
_atom_site_disorder_assembly
_atom_site_disorder_group
_atom_site_attached_hydrogens
N1 N 0.56022(7) 0.53690(7) 0.31787(9) 0.0355 1.0000 Uani D . . . . . 
N2 N 0.44947(7) 0.52543(7) 0.33724(9) 0.0349 1.0000 Uani D . . . . . 
C3 C 0.50638(7) 0.54948(7) 0.36101(10) 0.0317 1.0000 Uani D . . . . . 
C4 C 0.50927(7) 0.59426(7) 0.43598(9) 0.0295 1.0000 Uani . . . . . . 
C5 C 0.46411(7) 0.58978(7) 0.50224(10) 0.0308 1.0000 Uani . . . . . . 
C6 C 0.46218(7) 0.63727(7) 0.56610(10) 0.0295 1.0000 Uani . . . . . . 
C7 C 0.50539(7) 0.69022(7) 0.56455(9) 0.0266 1.0000 Uani . . . . . . 
C8 C 0.55230(7) 0.69283(7) 0.49924(9) 0.0293 1.0000 Uani . . . . . . 
C9 C 0.55432(7) 0.64590(7) 0.43596(9) 0.0300 1.0000 Uani . . . . . . 
C10 C 0.5000 0.7500 0.6250 0.0260 1.0000 Uani S T . . . . 
O11 O 0.27168(6) 0.79991(5) 0.40738(7) 0.0375 1.0000 Uani . . . . . . 
O12 O 0.29269(6) 0.69446(5) 0.43502(7) 0.0402 1.0000 Uani . . . . . . 
C13 C 0.29857(7) 0.74592(7) 0.39049(10) 0.0328 1.0000 Uani . . . . . . 
C14 C 0.34415(7) 0.74301(7) 0.31461(9) 0.0302 1.0000 Uani . . . . . . 
C15 C 0.33989(7) 0.78769(8) 0.24777(10) 0.0321 1.0000 Uani . . . . . . 
C16 C 0.38722(7) 0.78894(7) 0.18348(10) 0.0304 1.0000 Uani . . . . . . 
C17 C 0.44016(7) 0.74548(7) 0.18543(9) 0.0273 1.0000 Uani . . . . . . 
C18 C 0.44252(7) 0.69905(7) 0.25122(9) 0.0303 1.0000 Uani . . . . . . 
C19 C 0.39557(7) 0.69766(7) 0.31462(10) 0.0309 1.0000 Uani . . . . . . 
C20 C 0.5000 0.7500 0.1250 0.0270 1.0000 Uani S T . . . . 
H51 H 0.4327 0.5547 0.5038 0.0416 1.0000 Uiso R . . . . . 
H61 H 0.4291 0.6335 0.6116 0.0398 1.0000 Uiso R . . . . . 
H81 H 0.5830 0.7293 0.4978 0.0409 1.0000 Uiso R . . . . . 
H91 H 0.5850 0.6504 0.3896 0.0413 1.0000 Uiso R . . . . . 
H151 H 0.3044 0.8187 0.2462 0.0441 1.0000 Uiso R . . . . . 
H161 H 0.3833 0.8212 0.1363 0.0406 1.0000 Uiso R . . . . . 
H181 H 0.4788 0.6676 0.2520 0.0424 1.0000 Uiso R . . . . . 
H191 H 0.3982 0.6668 0.3610 0.0417 1.0000 Uiso R . . . . . 
H22 H 0.4464(8) 0.5026(9) 0.2871(10) 0.0461(19) 1.0000 Uiso D . . . . . 
H21 H 0.4133(7) 0.5398(8) 0.3604(11) 0.0457(19) 1.0000 Uiso D . . . . . 
H12 H 0.5589(8) 0.5158(9) 0.2666(10) 0.0472(19) 1.0000 Uiso D . . . . . 
H11 H 0.5989(7) 0.5488(9) 0.3376(11) 0.0477(19) 1.0000 Uiso D . . . . . 

loop_
_atom_site_aniso_label
_atom_site_aniso_U_11
_atom_site_aniso_U_22
_atom_site_aniso_U_33
_atom_site_aniso_U_23
_atom_site_aniso_U_13
_atom_site_aniso_U_12
N1 0.0350(7) 0.0390(8) 0.0326(8) -0.0098(5) -0.0008(5) -0.0002(5) 
N2 0.0359(7) 0.0369(7) 0.0318(8) -0.0086(6) 0.0009(5) -0.0011(5) 
C3 0.0367(8) 0.0291(7) 0.0294(8) 0.0009(6) -0.0003(6) 0.0011(6) 
C4 0.0322(7) 0.0284(7) 0.0278(8) -0.0019(5) -0.0030(5) 0.0020(5) 
C5 0.0334(8) 0.0286(7) 0.0304(8) -0.0007(6) -0.0005(6) -0.0023(5) 
C6 0.0313(7) 0.0306(7) 0.0265(8) 0.0010(5) 0.0013(5) -0.0005(5) 
C7 0.0285(7) 0.0284(7) 0.0229(8) -0.0003(5) -0.0018(5) 0.0019(5) 
C8 0.0301(7) 0.0307(7) 0.0272(8) -0.0008(5) 0.0001(5) -0.0010(5) 
C9 0.0314(7) 0.0320(8) 0.0265(8) -0.0015(5) 0.0022(5) 0.0005(6) 
C10 0.0270(8) 0.0270(8) 0.0240(15) 0.0000 0.0000 0.0000 
O11 0.0424(6) 0.0346(6) 0.0354(7) 0.0009(4) 0.0114(5) 0.0040(5) 
O12 0.0488(7) 0.0341(6) 0.0376(7) 0.0027(5) 0.0160(5) 0.0019(5) 
C13 0.0340(8) 0.0334(8) 0.0311(9) -0.0021(6) 0.0026(6) -0.0021(6) 
C14 0.0308(7) 0.0312(7) 0.0285(8) -0.0027(5) 0.0026(6) -0.0019(6) 
C15 0.0302(7) 0.0341(8) 0.0320(9) -0.0020(6) 0.0007(6) 0.0025(5) 
C16 0.0311(7) 0.0317(7) 0.0283(8) 0.0015(5) -0.0008(5) 0.0006(6) 
C17 0.0289(7) 0.0290(7) 0.0240(8) -0.0026(5) -0.0001(5) -0.0017(5) 
C18 0.0320(7) 0.0304(7) 0.0284(8) 0.0003(6) 0.0010(6) 0.0016(6) 
C19 0.0351(8) 0.0304(7) 0.0272(8) 0.0013(5) 0.0016(6) -0.0001(6) 
C20 0.0289(9) 0.0289(9) 0.0231(15) 0.0000 0.0000 0.0000 

_refine_ls_extinction_method 
    'None'
_oxford_refine_ls_scale 0.2006(3)
 
loop_
 _geom_bond_atom_site_label_1
 _geom_bond_site_symmetry_1
 _geom_bond_atom_site_label_2
 _geom_bond_site_symmetry_2
 _geom_bond_distance
 _geom_bond_publ_flag
N1 . C3 . 1.313(2)    yes
N1 . H12 . 0.910(14)    no
N1 . H11 . 0.880(14)    no
N2 . C3 . 1.312(2)    yes
N2 . H22 . 0.914(14)    no
N2 . H21 . 0.871(14)    no
C3 . C4 . 1.487(2)    yes
C4 . C5 . 1.389(2)    yes
C4 . C9 . 1.395(2)    yes
C5 . C6 . 1.391(2)    yes
C5 . H51 . 0.959    no
C6 . C7 . 1.391(2)    yes
C6 . H61 . 0.984    no
C7 . C8 . 1.400(2)    yes
C7 . C10 . 1.5452(14)    yes
C8 . C9 . 1.377(2)    yes
C8 . H81 . 0.971    no
C9 . H91 . 0.962    no
O11 . C13 . 1.2561(19)    yes
O12 . C13 . 1.2638(19)    yes
C13 . C14 . 1.508(2)    yes
C14 . C15 . 1.389(2)    yes
C14 . C19 . 1.396(2)    yes
C15 . C16 . 1.393(2)    yes
C15 . H151 . 0.960    no
C16 . C17 . 1.395(2)    yes
C16 . H161 . 0.992    no
C17 . C18 . 1.398(2)    yes
C17 . C20 . 1.5448(14)    yes
C18 . C19 . 1.378(2)    yes
C18 . H181 . 0.977    no
C19 . H191 . 0.961    no

loop_
 _geom_angle_atom_site_label_1
 _geom_angle_site_symmetry_1
 _geom_angle_atom_site_label_2
 _geom_angle_site_symmetry_2
 _geom_angle_atom_site_label_3
 _geom_angle_site_symmetry_3
 _geom_angle
 _geom_angle_publ_flag
C3 . N1 . H12 . 121.4(10)    no
C3 . N1 . H11 . 120.9(11)    no
H12 . N1 . H11 . 117.7(14)    no
C3 . N2 . H22 . 119.6(10)    no
C3 . N2 . H21 . 120.1(11)    no
H22 . N2 . H21 . 118.1(15)    no
N1 . C3 . N2 . 121.26(15)    yes
N1 . C3 . C4 . 119.50(14)    yes
N2 . C3 . C4 . 119.19(14)    yes
C3 . C4 . C5 . 121.50(13)    yes
C3 . C4 . C9 . 119.20(13)    yes
C5 . C4 . C9 . 119.01(13)    yes
C4 . C5 . C6 . 120.62(13)    yes
C4 . C5 . H51 . 120.6    no
C6 . C5 . H51 . 118.7    no
C5 . C6 . C7 . 120.53(14)    yes
C5 . C6 . H61 . 119.0    no
C7 . C6 . H61 . 120.4    no
C6 . C7 . C8 . 118.26(13)    yes
C6 . C7 . C10 . 123.67(12)    yes
C8 . C7 . C10 . 117.75(11)    yes
C7 . C8 . C9 . 121.28(14)    yes
C7 . C8 . H81 . 119.0    no
C9 . C8 . H81 . 119.7    no
C4 . C9 . C8 . 120.21(14)    yes
C4 . C9 . H91 . 119.9    no
C8 . C9 . H91 . 119.8    no
C7 . C10 . C7 14_466 112.00(5)    yes
C7 . C10 . C7 8_545 112.00(5)    yes
C7 14_466 C10 . C7 8_545 104.52(10)    yes
C7 . C10 . C7 12_564 104.52(10)    yes
C7 14_466 C10 . C7 12_564 112.00(5)    yes
C7 8_545 C10 . C7 12_564 112.00(5)    yes
O12 . C13 . O11 . 124.61(14)    yes
O12 . C13 . C14 . 117.37(13)    yes
O11 . C13 . C14 . 117.92(13)    yes
C13 . C14 . C15 . 121.92(13)    yes
C13 . C14 . C19 . 119.17(13)    yes
C15 . C14 . C19 . 118.69(14)    yes
C14 . C15 . C16 . 120.83(14)    yes
C14 . C15 . H151 . 119.8    no
C16 . C15 . H151 . 119.4    no
C15 . C16 . C17 . 120.47(14)    yes
C15 . C16 . H161 . 119.6    no
C17 . C16 . H161 . 119.9    no
C16 . C17 . C18 . 118.13(13)    yes
C16 . C17 . C20 . 123.93(12)    yes
C18 . C17 . C20 . 117.63(11)    yes
C17 . C18 . C19 . 121.34(14)    yes
C17 . C18 . H181 . 118.5    no
C19 . C18 . H181 . 120.1    no
C14 . C19 . C18 . 120.44(14)    yes
C14 . C19 . H191 . 118.3    no
C18 . C19 . H191 . 121.3    no
C17 12_564 C20 . C17 . 104.51(10)    yes
C17 12_564 C20 . C17 14_465 112.00(5)    yes
C17 . C20 . C17 14_465 112.00(5)    yes
C17 12_564 C20 . C17 8_544 112.00(5)    yes
C17 . C20 . C17 8_544 112.00(5)    yes
C17 14_465 C20 . C17 8_544 104.51(10)    yes

loop_
 _geom_hbond_atom_site_label_D
 _geom_hbond_site_symmetry_D
 _geom_hbond_atom_site_label_H
 _geom_hbond_site_symmetry_H
 _geom_hbond_atom_site_label_A
 _geom_hbond_site_symmetry_A
 _geom_hbond_angle_DHA
 _geom_hbond_distance_DH
 _geom_hbond_distance_HA
 _geom_hbond_distance_DA
 _geom_hbond_publ_flag
C6 . H61 . C8 14_466 120 0.98 2.55 3.1649(18)    yes
C16 . H161 . C18 14_465 121 0.99 2.55 3.1747(18)    yes
N2 . H22 . O12 5_454 177.2(15) 0.914 1.845 2.7580(18)    yes
N1 . H12 . O11 5_454 174.3(17) 0.910 1.880 2.7878(18)    yes
